(declare-fun var0 () String)
(declare-fun var1 () String)
(declare-fun var2 () Int)
(declare-fun var3 () Int)
(declare-fun var4 () Bool)
(declare-fun var5 () Bool)
(assert (<= 6 var2))
(assert (str.in.re (str.replace var0 var1 var0) (re.union re.allchar re.allchar)))
(assert (str.prefixof "E~Vd5b\\ig2" var1))
(assert (<= (str.len var1) (str.len var1)))
(assert (str.prefixof var1 var1))
(check-sat)
